c preprocessed version of 4x12_torusGrid, 48 vertices, 96 edges
p td 48 96
0 1
0 11
0 12
0 36
1 2
1 13
1 37
2 3
2 14
2 38
3 4
3 15
3 39
4 5
4 16
4 40
5 6
5 17
5 41
6 7
6 18
6 42
7 8
7 19
7 43
8 9
8 20
8 44
9 10
9 21
9 45
10 11
10 22
10 46
11 23
11 47
12 13
12 23
12 24
13 14
13 25
14 15
14 26
15 16
15 27
16 17
16 28
17 18
17 29
18 19
18 30
19 20
19 31
20 21
20 32
21 22
21 33
22 23
22 34
23 35
24 25
24 35
24 36
25 26
25 37
26 27
26 38
27 28
27 39
28 29
28 40
29 30
29 41
30 31
30 42
31 32
31 43
32 33
32 44
33 34
33 45
34 35
34 46
35 47
36 37
36 47
37 38
38 39
39 40
40 41
41 42
42 43
43 44
44 45
45 46
46 47
